desiredZ=[1];
nNurses = 258;
hours = 97;
demand = [28 20 21 29 59 9 23 53 17 48 29 2 55 16 49 51 30 33 12 10 25 43 3 39 28 38 53 47 25 4 42 7 34 63 44 24 60 32 62 13 50 23 13 35 37 55 5 50 19 58 62 49 12 58 17 38 64 0 60 14 37 14 9 33 63 33 3 8 45 56 47 22 32 6 19 21 48 21 28 53 13 57 5 39 35 61 49 45 15 34 18 20 63 33 19 18 64];
minHours = 3;
maxHours = 47;
maxConsec = 5;
maxPresence = 49;